n = 36;
lu = [|-921, 1193
      |813, 1234
      |-1151, 1288
      |216, 496
      |-855, 866
      |575, 1164
      |-142, 254
      |437, 522
      |-1094, -705
      |-924, 396
      |-989, 930
      |-114, 183
      |474, 1111
      |203, 1008
      |-1157, 1051
      |861, 1241
      |-423, 773
      |-1038, 411
      |-1265, -1261
      |182, 793
      |-1015, 1079
      |-1200, -375
      |30, 145
      |-644, 864
      |-1241, -1208
      |-404, -20
      |-366, 795
      |-61, 1263
      |-1124, -138
      |-463, -180
      |-710, 675
      |-424, -205
      |-1099, 1234
      |501, 543
      |-867, 984
      |-1286, -204|];
